# 65175
param k := 5;
param n := 60;
param s := 2;
set E :=  (0,12) (0,30) (1,31) (2,18) (2,31) (3,7) (3,15) (3,19) (3,39) (3,53) (4,9) (4,17) (4,24) (5,35) (6,25) (6,29) (7,10) (8,14) (8,56) (10,24) (11,32) (12,38) (12,46) (13,34) (13,43) (14,18) (14,43) (14,56) (15,57) (16,59) (17,30) (18,36) (18,37) (18,45) (18,51) (19,48) (19,50) (20,59) (21,29) (21,33) (22,30) (22,32) (22,55) (23,59) (24,50) (24,58) (25,57) (26,40) (26,43) (26,44) (27,30) (27,43) (28,42) (28,48) (29,31) (29,59) (31,47) (33,42) (33,50) (34,55) (35,50) (36,55) (37,40) (37,54) (38,41) (38,57) (40,42) (41,49) (42,46) (45,53) (47,55) (49,53) (52,54) (56,57) (57,59);